cases/pglib-opf/pglib_opf_case89_pegase.m
ipopt
ACP
[info | PowerModels]: removing 1 cost terms from generator 4: [3258.3235999999997, 0.0]
[info | PowerModels]: removing 1 cost terms from generator 1: [658.6541000000001, 0.0]
[info | PowerModels]: removing 1 cost terms from generator 12: [1765.5344, 0.0]
[info | PowerModels]: removing 1 cost terms from generator 2: [3479.4851000000003, 0.0]
[info | PowerModels]: removing 1 cost terms from generator 6: [2770.7032000000004, 0.0]
[info | PowerModels]: removing 1 cost terms from generator 11: [3127.1293, 0.0]
[info | PowerModels]: removing 1 cost terms from generator 5: [1676.2466, 0.0]
[info | PowerModels]: removing 1 cost terms from generator 7: [839.8332999999999, 0.0]
[info | PowerModels]: removing 1 cost terms from generator 8: [3799.2336999999998, 0.0]
[info | PowerModels]: removing 1 cost terms from generator 10: [2251.779, 0.0]
[info | PowerModels]: removing 1 cost terms from generator 9: [2076.0836999999997, 0.0]
[info | PowerModels]: removing 1 cost terms from generator 3: [4229.3854, 0.0]

******************************************************************************
This program contains Ipopt, a library for large-scale nonlinear optimization.
 Ipopt is released as open source code under the Eclipse Public License (EPL).
         For more information visit http://projects.coin-or.org/Ipopt
******************************************************************************

This is Ipopt version 3.13.2, running with linear solver mumps.
NOTE: Other linear solvers might be more efficient (see Ipopt documentation).

Number of nonzeros in equality constraint Jacobian...:     5135
Number of nonzeros in inequality constraint Jacobian.:     1664
Number of nonzeros in Lagrangian Hessian.............:     9310

Total number of variables............................:     1042
                     variables with only lower bounds:        0
                variables with lower and upper bounds:      953
                     variables with only upper bounds:        0
Total number of equality constraints.................:     1019
Total number of inequality constraints...............:      832
        inequality constraints with only lower bounds:      206
   inequality constraints with lower and upper bounds:        0
        inequality constraints with only upper bounds:      626

iter    objective    inf_pr   inf_du lg(mu)  ||d||  lg(rg) alpha_du alpha_pr  ls
   0  8.1215627e+04 1.30e+01 1.00e+02  -1.0 0.00e+00    -  0.00e+00 0.00e+00   0
   1  8.2111121e+04 1.26e+01 9.75e+01  -1.0 1.47e+01    -  2.26e-02 2.68e-02h  1
   2  8.1799397e+04 1.23e+01 9.65e+01  -1.0 3.78e+01    -  4.41e-03 2.90e-02f  1
   3  8.1020402e+04 1.15e+01 9.25e+01  -1.0 3.80e+01    -  3.32e-02 6.72e-02f  1
   4  7.6877596e+04 9.82e+00 8.44e+01  -1.0 1.01e+02    -  6.97e-02 1.43e-01f  1
   5  7.6395359e+04 8.42e+00 6.12e+01  -1.0 1.21e+02    -  3.29e-01 1.43e-01f  1
   6  8.0457174e+04 6.67e+00 4.19e+01  -1.0 1.08e+02    -  3.98e-01 2.07e-01h  1
   7  8.0822405e+04 6.57e+00 3.68e+01  -1.0 9.23e+01    -  3.43e-01 1.56e-02h  3
   8  8.0885949e+04 6.55e+00 3.62e+01  -1.0 9.23e+01    -  6.19e-02 2.48e-03h  8
   9  8.0912436e+04 6.54e+00 3.04e+01  -1.0 9.23e+01    -  5.21e-01 1.16e-03h  9
iter    objective    inf_pr   inf_du lg(mu)  ||d||  lg(rg) alpha_du alpha_pr  ls
  10  8.0934914e+04 6.54e+00 3.04e+01  -1.0 9.23e+01    -  1.86e-01 8.72e-04h 10
  11  9.6375631e+04 2.64e+00 2.81e+01  -1.0 9.23e+01    -  4.72e-02 5.96e-01H  1
  12  9.9425681e+04 1.70e+00 1.65e+01  -1.0 6.49e+01    -  6.97e-01 3.56e-01h  1
  13  1.0174785e+05 1.15e+00 1.46e+01  -1.0 4.66e+01    -  9.90e-01 3.24e-01h  1
  14  1.0436605e+05 5.35e-01 8.19e+00  -1.0 3.36e+01    -  7.34e-01 5.35e-01h  1
  15  1.0511430e+05 3.76e-01 5.57e+00  -1.0 1.70e+01    -  2.52e-01 2.97e-01h  1
  16  1.0512975e+05 3.73e-01 9.91e+00  -1.0 3.84e+01    -  1.88e-01 9.45e-03h  1
  17  1.0680614e+05 8.74e-02 2.78e+00  -1.0 1.21e+01    -  2.97e-01 7.66e-01h  1
  18  1.0728013e+05 5.15e-02 4.37e-01  -1.0 3.43e+00    -  9.92e-01 8.82e-01h  1
  19  1.0726559e+05 3.55e-02 3.22e+01  -1.7 2.19e+00    -  1.00e+00 3.63e-01h  1
iter    objective    inf_pr   inf_du lg(mu)  ||d||  lg(rg) alpha_du alpha_pr  ls
  20  1.0726741e+05 3.45e-02 1.60e+02  -1.7 9.02e+00    -  1.00e+00 9.57e-02h  3
  21  1.0730265e+05 4.16e-04 7.37e+00  -1.7 6.30e+00    -  1.00e+00 1.00e+00H  1
  22  1.0730399e+05 6.72e-05 1.71e-03  -1.7 7.80e-01    -  1.00e+00 1.00e+00h  1
  23  1.0728910e+05 7.75e-04 1.38e+00  -2.5 2.47e+00    -  8.91e-01 9.72e-01h  1
  24  1.0728834e+05 1.54e-04 6.45e-03  -2.5 2.23e+00    -  1.00e+00 1.00e+00h  1
  25  1.0728831e+05 2.32e-06 1.39e-04  -2.5 5.08e-01    -  1.00e+00 1.00e+00h  1
  26  1.0728593e+05 9.72e-05 6.45e-02  -3.8 1.50e+00    -  9.80e-01 9.56e-01h  1
  27  1.0728581e+05 5.12e-06 1.15e-04  -3.8 5.72e-01    -  1.00e+00 1.00e+00h  1
  28  1.0728581e+05 5.22e-09 2.94e-07  -3.8 2.77e-02    -  1.00e+00 1.00e+00h  1
  29  1.0728567e+05 6.69e-07 1.58e-05  -5.7 1.56e-01    -  1.00e+00 1.00e+00h  1
iter    objective    inf_pr   inf_du lg(mu)  ||d||  lg(rg) alpha_du alpha_pr  ls
  30  1.0728567e+05 1.19e-10 5.66e-09  -5.7 3.75e-03    -  1.00e+00 1.00e+00h  1
  31  1.0728567e+05 1.09e-10 2.49e-09  -8.6 2.03e-03    -  1.00e+00 1.00e+00h  1

Number of Iterations....: 31

                                   (scaled)                 (unscaled)
Objective...............:   2.5366728950732145e+03    1.0728567306998387e+05
Dual infeasibility......:   2.4891145155119610e-09    1.0527424590834362e-07
Constraint violation....:   6.9601485969655255e-12    1.0858691723569791e-10
Complementarity.........:   3.4169093474339763e-09    1.4451426507160788e-07
Overall NLP error.......:   3.4169093474339763e-09    1.4451426507160788e-07


Number of objective function evaluations             = 66
Number of objective gradient evaluations             = 32
Number of equality constraint evaluations            = 66
Number of inequality constraint evaluations          = 66
Number of equality constraint Jacobian evaluations   = 32
Number of inequality constraint Jacobian evaluations = 32
Number of Lagrangian Hessian evaluations             = 31
Total CPU secs in IPOPT (w/o function evaluations)   =      1.651
Total CPU secs in NLP function evaluations           =      2.403

EXIT: Optimal Solution Found.
Time to Solution........:4.8291850090026855
